23
 1 299 13
 2 456 19
 3 475 19
 4 130 5
 5 324 12
 6 28 1
 7 87 3
 8 90 3
 9 248 8
 10 96 3
 11 165 5
 12 238 7
 13 420 12
 14 612 17
 15 37 1
 16 266 7
 17 741 19
 18 520 13
 19 205 5
 20 84 2
 21 129 3
 22 88 2
 23 720 16
299